NAME: instance_134
TYPE: TSP
DIMENSION: 20
EDGE_WEIGHT_TYPE: EUC_2D
NODE_COORD_SECTION
0 28.88 14.46
1 90.38 28.50
2 21.21 18.65
3 7.80 10.07
4 61.72 27.01
5 34.70 24.74
6 57.79 43.64
7 40.20 26.70
8 99.01 44.60
9 46.28 77.94
10 86.98 94.70
11 27.46 61.49
12 79.66 49.54
13 22.04 79.02
14 25.00 67.51
15 27.38 1.19
16 92.32 22.85
17 51.33 89.25
18 48.45 30.99
19 35.80 22.67
EOF
